2 15
170 136 
0 44 34 62 52 9 98 2
1 98 88 75 65 75 93 1
2 64 54 99 89 36 29 1
3 23 13 31 21 18 87 2
4 50 40 21 11 84 53 2
5 108 98 17 7 96 44 2
6 103 93 50 40 31 8 1
7 48 38 33 23 35 77 2
8 52 42 95 85 67 82 2
9 98 88 66 56 83 20 2
10 42 32 96 86 40 99 2
11 57 47 58 48 18 99 1
12 53 43 80 70 28 30 1
13 66 56 14 4 67 93 1
14 96 86 34 24 84 9 2
